
Gurobi 10.0.1 (linux64) logging started Wed May 24 15:18:54 2023

Set parameter LogFile to value "logFiles/N-1L-B/N-1L-13U-15F-23V-180D/basic-05-24-2023, 15-18-H70-P50-O15.log"
Gurobi Optimizer version 10.0.1 build v10.0.1rc0 (linux64)

CPU model: Intel(R) Xeon(R) Gold 5115 CPU @ 2.40GHz, instruction set [SSE2|AVX|AVX2|AVX512]
Thread count: 20 physical cores, 40 logical processors, using up to 20 threads

Optimize a model with 81796 rows, 1121417 columns and 6321573 nonzeros
Model fingerprint: 0x6d95b927
Variable types: 564664 continuous, 556753 integer (556753 binary)
Coefficient statistics:
  Matrix range     [1e+00, 2e+05]
  Objective range  [4e+01, 3e+07]
  Bounds range     [1e+00, 1e+00]
  RHS range        [1e+00, 2e+06]
Presolve removed 42820 rows and 19217 columns
Presolve time: 0.41s

Explored 0 nodes (0 simplex iterations) in 1.85 seconds (0.94 work units)
Thread count was 1 (of 40 available processors)

Solution count 0

Model is infeasible or unbounded
Best objective -, best bound -, gap -
IIS computation: initial model status unknown, solving to determine model status
Presolve removed 49740 rows and 316974 columns (presolve time = 5s) ...
Presolve removed 51810 rows and 339513 columns (presolve time = 10s) ...
Presolve removed 51811 rows and 339513 columns (presolve time = 15s) ...
Presolve removed 51812 rows and 339539 columns (presolve time = 20s) ...
Presolve removed 51756 rows and 339483 columns
Presolve time: 20.74s
Presolved: 30040 rows, 781934 columns, 4236721 nonzeros
Variable types: 274536 continuous, 507398 integer (507398 binary)
Deterministic concurrent LP optimizer: primal simplex, dual simplex, and barrier
Showing barrier log only...

Root barrier log...

Ordering time: 1.36s

Barrier statistics:
 AA' NZ     : 1.968e+06
 Factor NZ  : 7.026e+06 (roughly 400 MB of memory)
 Factor Ops : 9.897e+09 (less than 1 second per iteration)
 Threads    : 17

                  Objective                Residual
Iter       Primal          Dual         Primal    Dual     Compl     Time
   0  -0.00000000e+00  2.83734719e+05  1.66e+09 0.00e+00  6.72e+03    32s
   1  -0.00000000e+00  3.52887427e+05  8.55e+08 1.89e-02  3.54e+03    32s
   2  -0.00000000e+00  3.30287110e+05  1.33e+08 1.94e-16  5.61e+02    32s
   3  -0.00000000e+00  2.47154319e+05  3.82e+06 1.25e-16  1.63e+01    33s
   4  -0.00000000e+00  5.55152883e+04  7.77e+05 9.98e-17  1.86e+00    33s
   5  -0.00000000e+00  2.85642453e+04  2.21e+05 1.63e-16  4.09e-01    34s
   6  -0.00000000e+00  1.16355812e+04  7.25e+04 1.86e-16  8.26e-02    34s
   7  -0.00000000e+00  4.99662911e+03  2.02e+04 8.36e-17  1.43e-02    34s
   8  -0.00000000e+00  3.15561904e+03  1.77e+04 7.30e-17  9.48e-03    35s
   9  -0.00000000e+00  1.39491144e+03  7.81e+03 1.60e-08  2.93e-03    35s
  10  -0.00000000e+00  3.60298828e+02  1.47e+03 4.96e-08  4.30e-04    36s
  11  -0.00000000e+00  8.13412746e+01  1.40e+02 3.95e-08  6.33e-05    36s
  12  -0.00000000e+00  5.82013857e+01  1.15e+02 2.99e-08  4.59e-05    37s
  13  -0.00000000e+00  4.92439273e+01  7.53e+01 2.64e-08  3.70e-05    37s
  14  -0.00000000e+00  3.73595261e+01  5.34e+01 2.09e-08  2.77e-05    38s
  15  -0.00000000e+00  3.47795358e+01  3.99e+01 1.96e-08  2.51e-05    38s
  16  -0.00000000e+00  2.31876665e+01  2.65e+01 1.21e-08  1.67e-05    38s
  17  -0.00000000e+00  1.80815790e+01  1.88e+01 7.35e-09  1.30e-05    39s
  18  -0.00000000e+00  1.55117052e+01  1.58e+01 7.26e-09  1.11e-05    40s
  19  -0.00000000e+00  1.19734623e+01  1.13e+01 7.92e-09  8.65e-06    40s
  20  -0.00000000e+00  8.43626808e+00  7.80e+00 1.08e-08  6.21e-06    41s
  21  -0.00000000e+00  7.68991586e+00  6.90e+00 1.30e-08  5.67e-06    41s
  22  -0.00000000e+00  6.37906697e+00  5.28e+00 1.53e-08  4.70e-06    42s
  23  -0.00000000e+00  6.06954954e+00  3.91e+00 1.78e-08  4.34e-06    42s
  24  -0.00000000e+00  4.24942708e+00  2.18e+00 3.41e-08  2.97e-06    43s
  25  -0.00000000e+00  2.11867333e+00  1.20e+00 3.22e-08  1.47e-06    43s
  26  -0.00000000e+00  7.44358451e-01  2.54e-01 2.12e-08  4.96e-07    44s
  27  -0.00000000e+00  3.58913718e-01  6.25e-02 1.31e-08  2.37e-07    44s
  28  -0.00000000e+00  1.43612375e-01  4.46e-03 6.26e-09  9.49e-08    45s
  29  -0.00000000e+00  6.28176361e-03  3.54e-04 3.68e-10  4.27e-09    45s
  30  -0.00000000e+00  1.64244739e-06  1.83e-08 1.79e-13  1.13e-12    45s
  31  -0.00000000e+00  3.58781880e-12  5.25e-11 1.55e-16  2.47e-18    46s

Barrier solved model in 31 iterations and 45.69 seconds (50.27 work units)
Optimal objective -0.00000000e+00

  Building initial crossover basis                                50s
  Building initial crossover basis                                55s
  Building initial crossover basis                                60s
  Building initial crossover basis                                65s
  Building initial crossover basis                                70s
  Building initial crossover basis                                75s
  Building initial crossover basis                                80s

Root crossover log...

   14899 DPushes remaining with DInf 5.1087189e+01                81s
       0 DPushes remaining with DInf 0.0000000e+00                82s

     319 PPushes remaining with PInf 1.7582903e-04                82s
       0 PPushes remaining with PInf 0.0000000e+00                82s

  Push phase complete: Pinf 0.0000000e+00, Dinf 0.0000000e+00     82s


Root simplex log...

Iteration    Objective       Primal Inf.    Dual Inf.      Time
    1415   -0.0000000e+00   0.000000e+00   0.000000e+00     82s
Concurrent spin time: 0.00s

Solved with barrier
    1415   -0.0000000e+00   0.000000e+00   0.000000e+00     82s

Root relaxation: objective -0.000000e+00, 1415 iterations, 57.06 seconds (45.94 work units)

    Nodes    |    Current Node    |     Objective Bounds      |     Work
 Expl Unexpl |  Obj  Depth IntInf | Incumbent    BestBd   Gap | It/Node Time

     0     0  postponed    0               -   -0.00000      -     -   82s
H    0     0                      -0.0000000   -0.00000  0.00%     -   82s

Explored 1 nodes (37333 simplex iterations) in 82.38 seconds (80.16 work units)
Thread count was 20 (of 40 available processors)

Solution count 2: -0 -0 
No other solutions better than -0

Optimal solution found (tolerance 1.00e-02)
Best objective -0.000000000000e+00, best bound -0.000000000000e+00, gap 0.0000%
IIS runtime: 82.47 seconds (80.16 work units)
